p cnf 122 402
-3 1 0
-3 -2 0
-1 2 3 0
-4 3 0
-4 3 0
-3 4 0
6 -5 0
6 -5 0
5 -6 0
-7 -5 0
-7 -6 0
5 6 7 0
3 7 -8 0
-3 -7 -8 0
3 -7 8 0
-3 7 8 0
-8 9 -10 0
8 -9 -10 0
-8 -9 10 0
8 9 10 0
4 10 -11 0
-4 -10 -11 0
4 -10 11 0
-4 10 11 0
-14 -12 0
-14 13 0
12 -13 14 0
14 -15 -16 0
-14 15 -16 0
14 15 16 0
-14 -15 16 0
17 6 0
17 -5 0
-6 5 -17 0
-18 -16 0
-18 -17 0
16 17 18 0
-19 -11 0
-19 -18 0
11 18 19 0
-13 21 -22 0
13 -21 -22 0
-13 -21 22 0
13 21 22 0
23 -20 0
23 -22 0
20 22 -23 0
-26 24 0
-26 -25 0
-24 25 26 0
27 -23 0
27 26 0
23 -26 -27 0
28 -19 0
28 -27 0
19 27 -28 0
30 25 0
30 29 0
-25 -29 -30 0
-31 12 0
-31 30 0
-12 -30 31 0
-34 6 0
-34 33 0
-6 -33 34 0
35 -32 0
35 -34 0
32 34 -35 0
36 -35 0
36 14 0
35 -14 -36 0
37 31 0
37 36 0
-31 -36 -37 0
38 -28 0
38 37 0
28 -37 -38 0
-5 25 -39 0
5 -25 -39 0
-5 -25 39 0
5 25 39 0
12 25 -40 0
-12 -25 -40 0
12 -25 40 0
-12 25 40 0
-41 40 0
-41 -29 0
-40 29 41 0
-42 41 0
-42 1 0
-41 -1 42 0
43 42 0
43 -33 0
-42 33 -43 0
44 39 0
44 43 0
-39 -43 -44 0
-9 -6 -45 0
9 6 -45 0
-9 6 45 0
9 -6 45 0
-29 -12 -46 0
29 12 -46 0
-29 12 46 0
29 -12 46 0
-47 -9 0
-47 -46 0
9 46 47 0
-48 -15 0
-48 1 0
15 -1 48 0
48 39 -49 0
-48 -39 -49 0
48 -39 49 0
-48 39 49 0
50 -9 0
50 49 0
9 -49 -50 0
50 -16 -51 0
-50 16 -51 0
50 16 51 0
-50 -16 51 0
-52 47 0
-52 -51 0
-47 51 52 0
53 9 0
53 17 0
-9 -17 -53 0
54 2 0
54 4 0
-2 -4 -54 0
-55 33 0
-55 30 0
-33 -30 55 0
-56 13 0
-56 -48 0
-13 48 56 0
57 -55 0
57 -56 0
55 56 -57 0
54 -57 -58 0
-54 57 -58 0
54 57 58 0
-54 -57 58 0
-59 -58 0
-59 -32 0
58 32 59 0
-53 59 -60 0
53 -59 -60 0
-53 -59 60 0
53 59 60 0
-61 52 0
-61 60 0
-52 -60 61 0
62 45 0
62 61 0
-45 -61 -62 0
-63 -44 0
-63 62 0
44 -62 63 0
64 -25 0
64 -13 0
25 13 -64 0
65 63 0
65 -64 0
-63 64 -65 0
-66 17 0
-66 -1 0
-17 1 66 0
67 35 0
67 -9 0
-35 9 -67 0
68 6 0
68 67 0
-6 -67 -68 0
-69 -57 0
-69 -34 0
57 34 69 0
70 -46 0
70 -69 0
46 69 -70 0
71 68 0
71 70 0
-68 -70 -71 0
72 42 0
72 -17 0
-42 17 -72 0
-73 72 0
-73 -16 0
-72 16 73 0
74 73 0
74 5 0
-73 -5 -74 0
75 -71 0
75 74 0
71 -74 -75 0
-66 -75 -76 0
66 75 -76 0
-66 75 76 0
66 -75 76 0
65 76 -77 0
-65 -76 -77 0
65 -76 77 0
-65 76 77 0
79 -78 0
79 6 0
78 -6 -79 0
-48 -79 -80 0
48 79 -80 0
-48 79 80 0
48 -79 80 0
82 -80 0
82 81 0
80 -81 -82 0
-83 14 0
-83 -13 0
-14 13 83 0
-84 82 0
-84 -83 0
-82 83 84 0
-85 -9 0
-85 12 0
9 -12 85 0
-86 -6 0
-86 42 0
6 -42 86 0
-55 -46 -87 0
55 46 -87 0
-55 46 87 0
55 -46 87 0
88 -42 0
88 -87 0
42 87 -88 0
15 88 -89 0
-15 -88 -89 0
15 -88 89 0
-15 88 89 0
-90 -86 0
-90 -89 0
86 89 90 0
-17 87 -91 0
17 -87 -91 0
-17 -87 91 0
17 87 91 0
92 -90 0
92 -91 0
90 91 -92 0
85 92 -93 0
-85 -92 -93 0
85 -92 93 0
-85 92 93 0
2 29 -94 0
-2 -29 -94 0
2 -29 94 0
-2 29 94 0
-24 -94 -95 0
24 94 -95 0
-24 94 95 0
24 -94 95 0
96 -87 0
96 -5 0
87 5 -96 0
95 96 -97 0
-95 -96 -97 0
95 -96 97 0
-95 96 97 0
98 94 0
98 16 0
-94 -16 -98 0
-16 -55 -99 0
16 55 -99 0
-16 55 99 0
16 -55 99 0
100 -43 0
100 -99 0
43 99 -100 0
101 -15 0
101 42 0
15 -42 -101 0
-102 -101 0
-102 -80 0
101 80 102 0
-103 -100 0
-103 102 0
100 -102 103 0
-98 103 -104 0
98 -103 -104 0
-98 -103 104 0
98 103 104 0
97 104 -105 0
-97 -104 -105 0
97 -104 105 0
-97 104 105 0
26 39 -106 0
-26 -39 -106 0
26 -39 106 0
-26 39 106 0
86 106 -107 0
-86 -106 -107 0
86 -106 107 0
-86 106 107 0
108 -105 0
108 107 0
105 -107 -108 0
109 93 0
109 108 0
-93 -108 -109 0
-110 -32 0
-110 -5 0
32 5 110 0
-111 -110 0
-111 -14 0
110 14 111 0
112 -43 0
112 13 0
43 -13 -112 0
-41 112 -113 0
41 -112 -113 0
-41 -112 113 0
41 112 113 0
-113 -7 -114 0
113 7 -114 0
-113 7 114 0
113 -7 114 0
-115 -99 0
-115 -23 0
99 23 115 0
116 -115 0
116 52 0
115 -52 -116 0
-117 -114 0
-117 116 0
114 -116 117 0
118 111 0
118 -117 0
-111 117 -118 0
-109 118 -119 0
109 -118 -119 0
-109 -118 119 0
109 118 119 0
120 84 0
120 119 0
-84 -119 -120 0
121 -77 0
121 -120 0
77 120 -121 0
122 -38 0
122 -121 0
38 121 -122 0
7 31 55 0
-21 -121 0
56 -28 43 14 13 -66 0
-116 15 76 79 0
4 -60 33 0
107 -102 23 -112 40 -83 0
1 85 73 0
99 103 70 -43 115 0
1 18 -95 74 119 0
-60 61 44 58 0
71 118 -102 -22 0
-19 -75 -66 12 0
-35 -11 102 18 -44 -14 0
22 87 -80 0
-102 61 0
-26 99 106 -82 105 0
57 -118 -46 -37 0
40 -82 -70 0
-75 47 -55 0
32 105 -47 0
-122 -80 0
-120 -30 90 0
18 114 98 0
25 115 -114 67 0
-22 -89 96 0
-17 111 0
14 122 -81 54 4 32 0
-121 -29 -43 0
10 76 0
21 -99 92 0
-106 101 -30 -65 119 17 0
5 -64 63 -68 -65 24 0
65 -25 -110 48 -103 -59 0
-110 71 -89 0
6 17 -93 29 1 52 0
-33 -107 80 -101 74 0
31 -42 -79 -56 -109 0
-48 -78 -106 20 0
67 -29 91 -43 0
-33 -11 -109 -76 0
-27 94 -116 46 0
-44 21 -105 -54 0
59 -78 61 -29 34 -43 0
-47 -30 0
87 -108 95 0
-7 -73 -57 96 -108 -81 0
-64 -38 -56 -27 0
-92 -119 0
60 59 82 -87 -27 64 0
-107 -101 3 21 -34 -62 0
61 -54 5 0
-56 -52 -2 -57 -65 -33 0
122 0
